0	2	16	18		10	13	25	26		1	7	20	23
19					29					4			
3	6	8			7	9	27			2	18	25	
4					12					21			
5	7	1						10	16	19	
19  9	21		8	2	4	23				13	17		
10	12				15	20				5	26		
3 13 11					17					24			
13	25	1		4	0	11				6	27		
14					16					22			
15	17				18	21				11	14	12	
20	22				6	8				15	29		
23					22					8			
24		5	1		14					9			
26					5					12			
27	29				1	3				28	0		
28					2					3			
19	24	28
